solution status: optimal solution found
objective value:                                   44
x27                                                 1 	(obj:1)
x28                                                 1 	(obj:1)
x29                                                 1 	(obj:1)
x30                                                 1 	(obj:1)
x31                                                 1 	(obj:1)
x33                                                 1 	(obj:1)
x34                                                 1 	(obj:1)
x35                                                 1 	(obj:1)
x37                                                 1 	(obj:1)
x38                                                 1 	(obj:1)
x40                                                 1 	(obj:1)
x42                                                 1 	(obj:1)
x44                                                 1 	(obj:1)
x45                                                 1 	(obj:1)
x47                                                 1 	(obj:1)
x49                                                 1 	(obj:1)
x51                                                 1 	(obj:1)
x53                                                 1 	(obj:1)
x54                                                 1 	(obj:1)
x55                                                 1 	(obj:1)
x56                                                 1 	(obj:1)
x57                                                 1 	(obj:1)
x65                                                 1 	(obj:1)
x67                                                 1 	(obj:1)
x68                                                 1 	(obj:1)
x77                                                 1 	(obj:1)
x78                                                 1 	(obj:1)
x79                                                 1 	(obj:1)
x80                                                 1 	(obj:1)
x83                                                 1 	(obj:1)
x86                                                 1 	(obj:1)
x88                                                 1 	(obj:1)
x89                                                 1 	(obj:1)
x90                                                 1 	(obj:1)
x92                                                 1 	(obj:1)
x93                                                 1 	(obj:1)
x94                                                 1 	(obj:1)
x95                                                 1 	(obj:1)
x97                                                 1 	(obj:1)
x99                                                 1 	(obj:1)
x101                                                1 	(obj:1)
x102                                                1 	(obj:1)
x103                                                1 	(obj:1)
x104                                                1 	(obj:1)
thingy.thingy.chamber[0].first.vinlet_y                   19 	(obj:0)
thingy.thingy.chamber[0].first.vinlet_z                   15 	(obj:0)
thingy.thingy.vinlet.valves[4].vinlet_y                   17 	(obj:0)
thingy.thingy.vinlet.valves[4].vinlet_z                   16 	(obj:0)
thingy.thingy.chamber[3].first.vinlet_y                   17 	(obj:0)
thingy.thingy.chamber[3].first.vinlet_z                   12 	(obj:0)
thingy.thingy.vinlet.valves[3].vinlet_y                   17 	(obj:0)
thingy.thingy.vinlet.valves[3].vinlet_z                   19 	(obj:0)
thingy.thingy.chamber[0].first.vbead_y                   19 	(obj:0)
thingy.thingy.chamber[0].first.vbead_z                   14 	(obj:0)
thingy.thingy.chamber[3].first.vbead_y                   17 	(obj:0)
thingy.thingy.chamber[3].first.vbead_z                   13 	(obj:0)
thingy.thingy.vinlet.valves[2].vinlet_y                   17 	(obj:0)
thingy.thingy.vinlet.valves[2].vinlet_z                   20 	(obj:0)
thingy.thingy.chamber[2].first.vbead_y                   19 	(obj:0)
thingy.thingy.chamber[2].first.vbead_z                   13 	(obj:0)
thingy.thingy.chamber[1].first.vinlet_y                   18 	(obj:0)
thingy.thingy.chamber[1].first.vinlet_z                   13 	(obj:0)
thingy.thingy.chamber[1].first.vbead_y                   20 	(obj:0)
thingy.thingy.chamber[1].first.vbead_z                   13 	(obj:0)
thingy.thingy.vinlet.valves[1].vinlet_y                   18 	(obj:0)
thingy.thingy.vinlet.valves[1].vinlet_z                   16 	(obj:0)
thingy.thingy.vinlet.valves[0].vinlet_y                   17 	(obj:0)
thingy.thingy.vinlet.valves[0].vinlet_z                   17 	(obj:0)
thingy.thingy.chamber[2].first.vinlet_y                   18 	(obj:0)
thingy.thingy.chamber[2].first.vinlet_z                   12 	(obj:0)
